; Property about rotate and mod
(declare-datatypes (a)
  ((list (nil) (cons (head a) (tail (list a))))))
(declare-datatypes () ((Nat (zero) (succ (p Nat)))))
(define-fun-rec
  plus
    ((x Nat) (y Nat)) Nat
    (match x
      (case zero y)
      (case (succ z) (succ (plus z y)))))
(define-fun-rec
  minus
    ((x Nat) (y Nat)) Nat
    (match x
      (case zero zero)
      (case (succ z) (match y (case (succ y2) (minus z y2))))))
(define-fun-rec
  lt
    ((x Nat) (y Nat)) Bool
    (match y
      (case zero false)
      (case (succ z)
        (match x
          (case zero true)
          (case (succ n) (lt n z))))))
(define-fun-rec
  mod2
    ((x Nat) (y Nat)) Nat
    (match y
      (case zero zero)
      (case (succ z) (ite (lt x y) x (mod2 (minus x y) y)))))
(define-fun-rec
  leq
    ((x Nat) (y Nat)) Bool
    (match x
      (case zero true)
      (case (succ z)
        (match y
          (case zero false)
          (case (succ x2) (leq z x2))))))
(define-fun-rec
  (par (a)
    (take
       ((x Nat) (y (list a))) (list a)
       (ite
         (leq x zero) (_ nil a)
         (match y
           (case nil (_ nil a))
           (case (cons z xs)
             (match x (case (succ x2) (cons z (take x2 xs))))))))))
(define-fun-rec
  (par (a)
    (length
       ((x (list a))) Nat
       (match x
         (case nil zero)
         (case (cons y l) (plus (succ zero) (length l)))))))
(define-fun-rec
  (par (a)
    (drop
       ((x Nat) (y (list a))) (list a)
       (ite
         (leq x zero) y
         (match y
           (case nil (_ nil a))
           (case (cons z xs1) (match x (case (succ x2) (drop x2 xs1)))))))))
(define-fun-rec
  (par (a)
    (++
       ((x (list a)) (y (list a))) (list a)
       (match x
         (case nil y)
         (case (cons z xs) (cons z (++ xs y)))))))
(define-fun-rec
  (par (a)
    (rotate
       ((x Nat) (y (list a))) (list a)
       (match x
         (case zero y)
         (case (succ z)
           (match y
             (case nil (_ nil a))
             (case (cons z2 xs1) (rotate z (++ xs1 (cons z2 (_ nil a)))))))))))
(prove
  (par (a)
    (forall ((n Nat) (xs (list a)))
      (= (rotate n xs)
        (++ (drop (mod2 n (length xs)) xs)
          (take (mod2 n (length xs)) xs))))))
(assert
  (forall ((x Nat) (y Nat) (z Nat))
    (= (plus x (plus y z)) (plus (plus x y) z))))
(assert (forall ((x Nat) (y Nat)) (= (plus x y) (plus y x))))
(assert (forall ((x Nat)) (= (plus x zero) x)))
(assert (forall ((x Nat)) (= (plus zero x) x)))
